70
1 0 2
2 0 86
2 1 31
3 0 255
3 1 221
3 2 175
4 0 241
4 1 82
4 3 44
5 0 41
5 1 92
5 2 272
5 3 296
5 4 95
6 0 274
6 1 18
6 2 169
6 4 64
6 5 238
7 0 208
7 1 168
7 2 300
7 3 43
7 4 249
7 5 195
7 6 128
8 0 235
8 2 114
8 4 244
8 5 169
8 6 165
9 0 98
9 1 60
9 2 299
9 3 165
9 4 129
9 5 304
9 6 233
9 7 26
9 8 184
10 0 224
10 2 277
10 3 169
10 4 170
10 5 298
10 7 107
11 0 201
11 2 144
11 3 60
11 4 98
11 5 174
11 6 289
11 10 138
12 0 82
12 1 300
12 2 280
12 3 187
12 5 112
12 6 93
12 8 268
12 9 228
12 11 277
13 0 153
13 1 291
13 2 44
13 3 23
13 6 108
13 7 166
13 8 171
13 9 2
13 10 240
13 11 314
13 12 163
14 0 313
14 1 265
14 2 68
14 3 153
14 4 62
14 5 201
14 6 33
14 7 137
14 8 192
14 9 78
14 11 185
14 12 265
14 13 108
15 0 77
15 2 181
15 3 38
15 4 210
15 5 187
15 6 300
15 7 282
15 10 171
15 11 28
15 13 9
15 14 207
16 0 87
16 1 33
16 2 134
16 3 120
16 4 129
16 5 91
16 6 91
16 8 294
16 9 223
16 10 65
16 11 217
16 12 290
16 13 142
16 14 25
16 15 71
17 0 256
17 1 186
17 2 29
17 3 277
17 4 96
17 5 317
17 6 281
17 7 200
17 8 79
17 9 179
17 10 225
17 11 240
17 12 151
17 13 228
17 14 162
17 15 228
17 16 54
18 0 281
18 1 211
18 2 145
18 5 83
18 7 84
18 9 59
18 10 240
18 11 225
18 12 117
18 13 182
18 14 259
18 15 180
18 16 172
19 1 199
19 2 22
19 3 125
19 4 213
19 5 296
19 6 52
19 7 190
19 8 213
19 10 131
19 11 1
19 12 115
19 13 296
19 14 243
19 15 105
19 17 169
19 18 12
20 0 29
20 1 292
20 2 319
20 3 23
20 4 316
20 5 5
20 6 298
20 8 299
20 9 160
20 11 231
20 12 204
20 13 281
20 14 240
20 15 181
20 16 210
20 17 76
20 18 1
20 19 55
21 0 132
21 1 198
21 2 60
21 4 272
21 5 152
21 6 162
21 7 225
21 8 255
21 9 24
21 12 137
21 13 100
21 14 215
21 15 265
21 16 132
21 17 86
21 18 152
21 19 54
21 20 248
22 0 275
22 3 9
22 4 103
22 5 225
22 6 116
22 7 135
22 8 298
22 9 112
22 10 12
22 11 250
22 13 317
22 14 113
22 15 271
22 16 180
22 18 7
22 19 283
22 20 87
22 21 292
23 0 158
23 1 310
23 5 81
23 6 230
23 7 302
23 8 276
23 9 55
23 10 316
23 11 125
23 12 24
23 13 284
23 14 86
23 16 213
23 17 165
23 18 211
23 20 284
23 21 287
23 22 25
24 0 122
24 2 244
24 3 303
24 5 207
24 7 218
24 8 161
24 9 104
24 10 271
24 11 44
24 12 241
24 13 263
24 14 232
24 15 110
24 16 46
24 17 81
24 18 9
24 19 88
24 22 127
25 0 35
25 1 317
25 2 93
25 3 65
25 4 258
25 5 158
25 6 242
25 8 133
25 9 307
25 10 255
25 11 280
25 12 76
25 13 200
25 14 307
25 16 113
25 17 227
25 18 239
25 20 3
25 21 20
25 24 17
26 0 178
26 1 173
26 3 17
26 4 56
26 6 81
26 7 251
26 8 111
26 9 275
26 10 125
26 11 110
26 12 206
26 14 315
26 15 85
26 16 58
26 17 183
26 20 90
26 21 147
26 22 267
26 23 44
26 24 132
26 25 311
27 0 318
27 1 272
27 2 70
27 3 263
27 4 171
27 5 258
27 6 80
27 7 99
27 8 120
27 9 30
27 11 265
27 12 296
27 13 27
27 14 256
27 15 128
27 16 214
27 17 108
27 18 16
27 19 87
27 20 187
27 22 130
27 23 122
27 24 176
27 25 188
28 1 215
28 2 133
28 3 148
28 4 174
28 6 241
28 7 299
28 8 2
28 10 177
28 12 33
28 13 217
28 14 22
28 15 5
28 16 23
28 18 91
28 19 267
28 20 304
28 21 255
28 22 96
28 23 315
28 24 314
28 25 125
28 26 241
28 27 103
29 0 96
29 1 186
29 2 307
29 3 94
29 5 42
29 6 295
29 7 194
29 8 9
29 9 304
29 10 307
29 11 163
29 12 158
29 13 106
29 14 113
29 15 152
29 17 297
29 18 73
29 19 248
29 20 234
29 21 303
29 22 56
29 23 133
29 25 252
29 27 67
29 28 198
30 0 306
30 2 272
30 3 18
30 4 144
30 8 162
30 9 315
30 10 53
30 12 166
30 13 194
30 15 164
30 16 31
30 17 35
30 18 20
30 19 65
30 21 79
30 22 264
30 24 142
30 25 168
30 27 102
30 28 29
30 29 148
31 0 74
31 1 55
31 2 283
31 3 314
31 4 147
31 5 103
31 6 264
31 7 86
31 8 191
31 10 119
31 11 211
31 12 282
31 14 279
31 18 34
31 19 268
31 20 87
31 21 195
31 22 150
31 23 184
31 24 1
31 26 280
31 27 138
31 28 126
31 29 258
31 30 292
32 0 97
32 2 118
32 3 70
32 4 139
32 5 180
32 6 289
32 7 302
32 8 167
32 9 234
32 11 274
32 12 162
32 13 267
32 14 302
32 15 173
32 20 116
32 22 148
32 23 125
32 24 39
32 25 236
32 27 157
32 28 124
32 29 2
32 30 130
33 0 9
33 1 293
33 2 54
33 4 81
33 5 208
33 6 231
33 7 124
33 9 142
33 10 35
33 11 104
33 13 120
33 15 123
33 16 43
33 18 300
33 21 40
33 22 297
33 23 40
33 24 230
33 25 117
33 26 13
33 27 79
33 28 197
33 29 104
33 30 123
33 31 153
34 0 11
34 2 150
34 3 222
34 4 253
34 6 226
34 7 5
34 8 214
34 9 87
34 10 47
34 12 110
34 13 263
34 14 82
34 15 127
34 16 180
34 17 66
34 18 48
34 19 80
34 20 303
34 22 60
34 24 15
34 26 139
34 27 27
34 28 47
34 31 162
34 32 265
34 33 234
35 1 301
35 2 134
35 3 88
35 4 90
35 5 169
35 8 19
35 9 107
35 12 47
35 13 50
35 14 92
35 16 117
35 18 250
35 21 189
35 22 146
35 23 163
35 24 199
35 25 284
35 26 237
35 27 257
35 28 290
35 30 10
35 31 208
35 33 97
35 34 58
36 1 193
36 2 155
36 3 9
36 4 308
36 5 222
36 6 72
36 7 319
36 8 200
36 9 14
36 10 166
36 11 263
36 12 203
36 13 186
36 14 17
36 15 195
36 16 19
36 17 307
36 18 105
36 19 316
36 20 289
36 21 66
36 23 90
36 24 316
36 25 28
36 26 299
36 27 222
36 29 36
36 30 223
36 31 235
36 32 138
36 33 34
36 34 202
36 35 29
37 2 282
37 3 29
37 4 307
37 5 135
37 7 310
37 8 181
37 9 253
37 11 29
37 12 10
37 13 302
37 14 72
37 15 294
37 16 147
37 17 125
37 19 25
37 20 272
37 22 298
37 23 222
37 24 208
37 26 20
37 28 250
37 29 259
37 30 39
37 33 7
37 34 134
37 36 51
38 0 8
38 1 63
38 2 72
38 3 76
38 5 296
38 6 230
38 7 75
38 10 9
38 12 23
38 13 8
38 14 280
38 15 224
38 16 217
38 18 145
38 19 147
38 20 309
38 21 248
38 22 17
38 24 132
38 25 174
38 26 304
38 27 68
38 28 211
38 29 104
38 31 223
38 32 107
38 33 16
38 34 236
38 35 305
38 36 11
38 37 103
39 0 246
39 1 137
39 2 239
39 5 80
39 6 268
39 7 291
39 8 102
39 9 238
39 10 13
39 11 139
39 13 186
39 14 77
39 15 152
39 16 319
39 17 88
39 18 264
39 19 127
39 21 194
39 22 280
39 23 64
39 26 101
39 28 309
39 29 30
39 30 55
39 31 151
39 32 98
39 33 104
39 35 186
39 36 254
39 37 235
39 38 233
40 0 122
40 1 234
40 2 179
40 3 81
40 5 174
40 6 162
40 8 302
40 9 210
40 10 181
40 12 142
40 13 150
40 14 85
40 15 254
40 16 196
40 18 187
40 19 42
40 22 39
40 23 196
40 25 313
40 26 223
40 27 62
40 28 179
40 30 126
40 31 288
40 32 201
40 33 141
40 34 253
40 37 120
40 38 65
40 39 267
41 0 55
41 1 11
41 2 50
41 3 95
41 5 160
41 6 143
41 8 312
41 9 190
41 10 169
41 11 16
41 13 75
41 14 156
41 15 110
41 16 91
41 17 219
41 18 207
41 20 70
41 21 56
41 22 298
41 24 222
41 26 82
41 27 151
41 28 310
41 29 21
41 30 30
41 31 122
41 32 308
41 33 97
41 34 279
41 35 283
41 36 288
41 37 243
41 38 154
42 0 69
42 1 267
42 2 204
42 3 46
42 4 175
42 5 56
42 6 318
42 7 57
42 8 74
42 10 167
42 11 260
42 13 73
42 14 259
42 15 191
42 16 319
42 17 261
42 18 25
42 20 97
42 21 220
42 22 289
42 23 6
42 25 186
42 26 313
42 27 133
42 28 174
42 29 121
42 30 45
42 31 94
42 33 253
42 34 283
42 35 152
42 36 69
42 38 167
42 39 158
42 40 129
42 41 157
43 1 73
43 2 229
43 4 219
43 5 41
43 6 16
43 8 172
43 9 178
43 10 274
43 11 239
43 12 163
43 14 254
43 15 132
43 16 60
43 17 133
43 18 97
43 20 229
43 21 254
43 22 140
43 23 108
43 24 100
43 26 227
43 27 303
43 28 50
43 29 27
43 30 317
43 32 248
43 33 6
43 35 254
43 36 267
43 37 147
43 38 220
43 39 155
43 40 25
43 41 178
44 0 18
44 1 117
44 3 241
44 4 43
44 5 313
44 6 22
44 11 281
44 12 57
44 13 193
44 14 302
44 15 160
44 16 138
44 18 269
44 19 215
44 20 305
44 21 78
44 22 236
44 24 167
44 26 182
44 27 93
44 28 27
44 29 244
44 30 61
44 31 36
44 32 317
44 34 101
44 35 71
44 37 170
44 38 31
44 39 227
44 40 314
44 42 242
44 43 90
45 0 166
45 1 101
45 2 256
45 4 296
45 5 210
45 7 75
45 8 225
45 9 121
45 10 13
45 11 105
45 12 283
45 13 211
45 14 275
45 15 275
45 16 255
45 17 115
45 18 135
45 19 183
45 20 271
45 21 18
45 22 174
45 23 249
45 24 135
45 25 291
45 26 310
45 27 243
45 28 196
45 29 85
45 30 40
45 31 300
45 32 144
45 33 69
45 34 74
45 35 20
45 36 67
45 37 315
45 38 306
45 39 258
45 40 158
45 41 65
45 42 316
45 43 171
45 44 61
46 0 124
46 1 46
46 2 53
46 3 160
46 5 102
46 7 115
46 8 193
46 9 188
46 12 147
46 14 15
46 15 264
46 16 180
46 18 175
46 19 169
46 21 314
46 22 170
46 23 263
46 25 284
46 27 293
46 29 261
46 30 114
46 31 233
46 32 151
46 33 100
46 34 45
46 35 165
46 36 178
46 37 302
46 38 296
46 40 152
46 41 101
46 43 26
46 44 287
46 45 299
47 0 150
47 1 277
47 2 227
47 5 182
47 6 246
47 7 122
47 8 298
47 9 195
47 10 212
47 11 37
47 12 262
47 13 132
47 14 208
47 15 16
47 17 110
47 18 77
47 19 287
47 20 265
47 22 15
47 24 288
47 25 319
47 26 56
47 27 51
47 29 138
47 30 12
47 31 92
47 32 11
47 33 153
47 34 6
47 35 66
47 36 12
47 37 320
47 38 191
47 39 167
47 40 150
47 41 117
47 44 268
47 45 294
47 46 231
48 0 30
48 1 205
48 2 206
48 5 208
48 6 218
48 7 44
48 8 262
48 9 258
48 11 29
48 12 245
48 16 80
48 17 94
48 19 14
48 22 118
48 23 144
48 24 259
48 25 122
48 26 276
48 27 149
48 28 55
48 29 251
48 30 306
48 31 6
48 32 116
48 33 238
48 34 11
48 36 82
48 37 256
48 38 207
48 39 134
48 41 249
48 42 214
48 43 36
48 44 54
48 45 54
48 46 274
48 47 154
49 0 56
49 1 174
49 2 202
49 4 275
49 5 25
49 6 132
49 7 223
49 9 150
49 11 66
49 12 272
49 13 105
49 14 285
49 16 197
49 17 221
49 18 289
49 19 81
49 20 312
49 21 210
49 24 160
49 26 108
49 27 195
49 28 186
49 29 277
49 30 91
49 31 311
49 32 122
49 35 233
49 36 202
49 37 39
49 38 288
49 39 273
49 40 62
49 41 175
49 42 28
49 43 288
49 44 222
49 45 146
49 46 221
49 47 252
49 48 102
50 0 68
50 1 217
50 2 235
50 3 314
50 4 14
50 5 234
50 6 62
50 7 77
50 8 13
50 9 216
50 10 231
50 11 188
50 12 27
50 13 276
50 15 139
50 16 241
50 17 252
50 18 30
50 19 242
50 20 310
50 21 211
50 24 257
50 25 177
50 26 83
50 27 210
50 28 106
50 29 207
50 30 284
50 31 7
50 33 191
50 35 14
50 36 16
50 37 159
50 38 202
50 39 9
50 40 144
50 41 198
50 42 164
50 43 217
50 46 251
50 47 207
50 48 272
50 49 271
51 0 310
51 1 87
51 2 247
51 3 95
51 4 161
51 5 220
51 6 131
51 7 230
51 8 101
51 9 218
51 11 254
51 12 294
51 15 259
51 16 94
51 17 273
51 18 93
51 19 136
51 20 288
51 21 200
51 22 56
51 23 91
51 24 208
51 25 106
51 28 28
51 29 111
51 30 11
51 32 206
51 33 222
51 34 69
51 35 301
51 37 311
51 38 121
51 39 212
51 40 32
51 41 31
51 42 165
51 43 206
51 44 166
51 45 155
51 46 131
51 47 119
51 48 100
51 49 103
51 50 147
52 0 54
52 1 317
52 2 99
52 3 195
52 4 280
52 5 317
52 6 87
52 7 255
52 8 115
52 10 96
52 11 300
52 12 117
52 14 247
52 15 191
52 16 256
52 17 64
52 18 27
52 20 233
52 23 7
52 24 208
52 25 166
52 26 285
52 27 209
52 28 174
52 29 270
52 30 261
52 31 19
52 33 305
52 34 266
52 35 16
52 36 130
52 38 37
52 40 188
52 41 73
52 42 95
52 44 291
52 45 47
52 46 84
52 48 117
52 49 183
52 50 98
52 51 226
53 0 275
53 1 82
53 2 196
53 3 7
53 4 57
53 5 283
53 6 150
53 7 7
53 8 125
53 9 213
53 10 297
53 12 46
53 13 189
53 14 168
53 15 163
53 17 258
53 19 263
53 20 152
53 21 128
53 22 311
53 23 237
53 24 258
53 25 152
53 26 280
53 27 43
53 28 248
53 30 79
53 31 305
53 32 160
53 33 119
53 34 68
53 36 138
53 37 166
53 38 2
53 39 202
53 40 7
53 41 207
53 43 37
53 44 186
53 45 304
53 46 275
53 47 174
53 48 138
53 49 242
53 51 34
53 52 139
54 0 22
54 1 277
54 2 199
54 3 245
54 4 166
54 5 151
54 6 124
54 7 148
54 8 210
54 9 319
54 10 76
54 12 293
54 13 297
54 14 115
54 15 190
54 17 66
54 18 162
54 19 33
54 20 231
54 21 104
54 23 11
54 24 194
54 25 311
54 26 227
54 27 53
54 30 78
54 33 115
54 34 157
54 35 3
54 37 52
54 39 266
54 40 190
54 41 152
54 42 247
54 43 38
54 44 110
54 45 13
54 47 115
54 48 71
54 49 179
54 50 130
54 53 203
55 0 152
55 1 196
55 3 177
55 4 253
55 5 55
55 8 113
55 9 209
55 10 314
55 11 227
55 12 30
55 14 21
55 16 265
55 17 89
55 18 108
55 20 77
55 21 116
55 22 268
55 23 58
55 24 94
55 26 292
55 27 122
55 29 209
55 31 264
55 32 74
55 34 151
55 35 99
55 36 180
55 37 59
55 38 271
55 39 290
55 40 307
55 41 219
55 42 309
55 43 267
55 45 107
55 46 5
55 47 192
55 48 191
55 49 96
55 50 94
55 51 225
55 52 48
55 54 125
56 0 230
56 1 121
56 2 170
56 3 146
56 4 223
56 6 71
56 7 34
56 8 237
56 9 273
56 10 111
56 11 304
56 12 87
56 13 35
56 14 14
56 16 70
56 17 294
56 19 37
56 20 14
56 21 298
56 22 15
56 23 132
56 24 257
56 26 124
56 27 30
56 28 232
56 29 13
56 30 48
56 31 166
56 32 11
56 34 172
56 37 135
56 39 212
56 40 3
56 41 42
56 42 286
56 43 234
56 44 317
56 46 175
56 47 90
56 48 271
56 49 243
56 51 276
56 52 252
56 53 45
56 54 94
57 0 135
57 1 221
57 2 17
57 3 163
57 4 19
57 5 234
57 6 275
57 7 90
57 8 236
57 10 317
57 11 320
57 12 36
57 13 209
57 14 167
57 15 142
57 16 244
57 17 207
57 18 270
57 19 121
57 20 28
57 21 49
57 22 214
57 23 115
57 24 186
57 25 249
57 26 133
57 28 275
57 29 298
57 32 262
57 33 204
57 35 177
57 36 145
57 37 101
57 38 29
57 39 256
57 40 6
57 42 225
57 43 218
57 45 92
57 46 306
57 47 299
57 48 83
57 49 311
57 50 227
57 51 159
57 52 85
57 53 204
57 54 269
57 55 19
57 56 88
58 0 262
58 1 176
58 2 122
58 3 248
58 5 130
58 6 19
58 7 49
58 8 74
58 9 267
58 10 304
58 11 30
58 12 280
58 13 192
58 14 114
58 15 312
58 16 149
58 17 318
58 18 58
58 19 108
58 21 293
58 22 288
58 24 122
58 25 31
58 27 92
58 28 214
58 29 245
58 30 181
58 31 94
58 34 255
58 35 318
58 37 313
58 38 42
58 39 196
58 40 11
58 41 92
58 42 300
58 43 225
58 45 312
58 46 265
58 48 237
58 49 267
58 50 285
58 51 47
58 52 299
58 53 198
58 54 189
58 55 72
58 56 318
59 1 203
59 2 250
59 3 102
59 4 191
59 7 317
59 8 58
59 9 52
59 10 260
59 11 222
59 12 159
59 13 8
59 14 151
59 15 186
59 16 35
59 17 118
59 18 122
59 20 46
59 21 217
59 23 8
59 24 261
59 27 103
59 31 54
59 32 38
59 33 34
59 34 306
59 35 129
59 36 123
59 37 145
59 38 225
59 39 123
59 40 11
59 41 28
59 42 65
59 43 272
59 44 198
59 45 136
59 46 50
59 47 82
59 50 196
59 51 63
59 52 13
59 53 167
59 54 150
59 55 280
59 56 234
60 0 300
60 1 65
60 2 173
60 3 25
60 5 143
60 7 72
60 8 125
60 9 87
60 10 318
60 11 140
60 13 76
60 16 186
60 18 197
60 19 169
60 20 59
60 21 191
60 25 262
60 26 167
60 27 33
60 28 200
60 29 251
60 30 98
60 32 214
60 33 92
60 34 316
60 35 290
60 36 215
60 37 172
60 38 144
60 39 219
60 40 193
60 41 83
60 42 266
60 43 241
60 44 122
60 45 107
60 46 6
60 47 265
60 50 15
60 51 194
60 52 112
60 54 314
60 55 93
60 56 110
60 57 269
60 58 209
60 59 304
61 0 133
61 1 74
61 3 115
61 4 88
61 5 234
61 6 318
61 7 223
61 8 304
61 9 190
61 10 257
61 11 301
61 12 233
61 13 81
61 14 153
61 16 31
61 18 163
61 20 87
61 22 27
61 24 52
61 25 82
61 26 61
61 28 71
61 29 233
61 30 120
61 31 52
61 33 27
61 35 255
61 37 110
61 38 245
61 39 15
61 40 42
61 41 229
61 43 36
61 44 307
61 46 240
61 47 68
61 48 313
61 49 1
61 50 150
61 51 199
61 52 310
61 53 170
61 54 33
61 55 302
61 56 311
61 58 116
61 59 189
61 60 103
62 0 246
62 1 23
62 2 13
62 3 93
62 4 251
62 5 198
62 6 50
62 7 140
62 9 197
62 10 197
62 11 10
62 12 182
62 14 46
62 16 266
62 17 77
62 18 234
62 19 212
62 20 312
62 21 229
62 22 163
62 23 110
62 24 112
62 25 181
62 27 303
62 28 261
62 29 261
62 30 138
62 31 10
62 32 94
62 33 203
62 34 286
62 36 311
62 37 265
62 38 301
62 39 130
62 40 138
62 42 27
62 43 75
62 44 48
62 45 12
62 47 105
62 48 53
62 49 167
62 50 159
62 51 20
62 53 118
62 54 75
62 55 14
62 56 297
62 58 149
62 59 191
62 60 132
62 61 143
63 0 211
63 1 177
63 2 269
63 3 262
63 4 133
63 6 86
63 7 129
63 8 196
63 9 225
63 10 158
63 11 180
63 12 21
63 13 165
63 15 213
63 17 247
63 18 12
63 19 53
63 20 174
63 21 306
63 22 202
63 23 154
63 24 55
63 25 6
63 26 14
63 27 212
63 29 44
63 30 176
63 31 2
63 32 275
63 33 252
63 34 43
63 35 203
63 36 298
63 37 144
63 38 131
63 39 114
63 40 77
63 41 169
63 43 259
63 44 54
63 45 8
63 46 215
63 47 135
63 48 313
63 49 10
63 50 50
63 51 255
63 52 125
63 53 161
63 54 272
63 55 65
63 56 138
63 57 73
63 58 224
63 59 288
63 60 74
63 61 43
63 62 320
64 0 23
64 2 23
64 3 177
64 5 130
64 6 316
64 7 49
64 8 127
64 10 165
64 11 41
64 12 16
64 13 278
64 14 316
64 15 81
64 16 200
64 17 39
64 18 242
64 19 7
64 20 146
64 21 254
64 22 47
64 23 49
64 27 35
64 28 23
64 29 265
64 30 204
64 31 106
64 32 125
64 33 276
64 34 136
64 35 78
64 36 134
64 37 2
64 38 137
64 40 197
64 41 307
64 42 102
64 43 96
64 44 191
64 45 83
64 46 272
64 47 80
64 49 203
64 50 149
64 52 193
64 53 41
64 56 12
64 57 23
64 58 129
64 59 72
64 60 23
64 61 45
64 63 159
65 1 206
65 2 189
65 5 16
65 6 78
65 7 182
65 8 136
65 9 123
65 11 47
65 12 171
65 14 154
65 15 67
65 16 8
65 17 209
65 18 79
65 20 188
65 23 247
65 24 304
65 25 270
65 26 27
65 27 17
65 28 187
65 29 176
65 30 302
65 31 72
65 33 304
65 35 58
65 36 282
65 37 193
65 38 4
65 39 172
65 40 139
65 41 157
65 42 219
65 43 296
65 44 182
65 45 231
65 47 286
65 49 273
65 50 184
65 51 95
65 52 234
65 53 142
65 55 318
65 56 195
65 57 70
65 58 266
65 59 241
65 60 272
65 61 112
65 62 178
65 63 196
65 64 183
66 0 1
66 1 182
66 3 47
66 4 63
66 5 127
66 7 15
66 8 120
66 9 121
66 10 153
66 11 115
66 12 11
66 13 3
66 15 6
66 16 278
66 17 60
66 18 206
66 19 154
66 20 40
66 21 184
66 22 89
66 26 76
66 28 162
66 29 150
66 30 237
66 31 289
66 32 115
66 33 6
66 34 51
66 35 289
66 36 151
66 38 61
66 40 22
66 41 35
66 42 21
66 43 283
66 44 204
66 46 79
66 47 300
66 48 37
66 51 61
66 52 286
66 53 17
66 54 14
66 55 180
66 56 165
66 58 282
66 59 208
66 61 282
66 62 245
66 64 26
67 0 210
67 1 61
67 2 103
67 3 267
67 4 168
67 5 260
67 6 136
67 7 71
67 8 143
67 10 86
67 14 88
67 15 208
67 17 267
67 18 262
67 19 176
67 20 62
67 21 296
67 22 247
67 23 111
67 24 310
67 25 49
67 27 280
67 29 265
67 30 255
67 31 264
67 32 23
67 33 293
67 34 200
67 35 101
67 36 75
67 37 159
67 38 317
67 39 312
67 41 311
67 42 42
67 43 206
67 45 86
67 46 11
67 47 101
67 48 227
67 49 244
67 50 144
67 53 249
67 54 238
67 55 61
67 57 170
67 58 203
67 59 316
67 60 217
67 61 142
67 62 281
67 63 51
67 64 7
67 65 229
67 66 42
68 1 120
68 2 242
68 3 70
68 4 255
68 5 267
68 6 122
68 7 58
68 8 80
68 9 297
68 10 13
68 12 308
68 13 286
68 14 87
68 15 174
68 16 289
68 18 222
68 19 306
68 20 200
68 21 88
68 23 154
68 24 233
68 25 286
68 27 146
68 28 36
68 31 302
68 32 13
68 33 188
68 36 304
68 37 18
68 38 249
68 39 227
68 40 302
68 42 187
68 43 250
68 44 249
68 45 100
68 46 133
68 47 32
68 48 83
68 49 101
68 50 45
68 51 81
68 53 296
68 54 206
68 55 136
68 56 296
68 57 134
68 59 99
68 60 38
68 61 110
68 62 135
68 63 31
68 64 232
68 65 133
68 66 271
68 67 280
69 0 232
69 1 19
69 2 103
69 3 120
69 4 290
69 5 90
69 6 286
69 7 11
69 9 226
69 10 16
69 11 240
69 12 270
69 13 175
69 14 149
69 15 266
69 18 308
69 19 63
69 20 207
69 21 59
69 22 42
69 23 8
69 24 113
69 25 260
69 26 74
69 27 112
69 28 64
69 29 126
69 30 184
69 31 134
69 32 22
69 34 184
69 35 8
69 37 66
69 38 173
69 39 117
69 40 261
69 42 126
69 43 170
69 44 320
69 45 141
69 46 273
69 47 256
69 48 92
69 49 135
69 50 67
69 51 18
69 52 83
69 53 8
69 54 210
69 55 295
69 57 132
69 58 318
69 59 54
69 60 62
69 61 46
69 62 27
69 63 231
69 64 234
69 65 175
69 66 21
69 68 167
